#-----------------------------------------------------------------------------------
# NANOPOLY - POLYMER NANOCOMPOSITE SIMULATION FILE                                  
# Full project files can be found at: https://github.com/aravinthen/nanoPoly        
#-----------------------------------------------------------------------------------
# FILENAME: test_settings.in                                                        
# DATE: 2021-10-02                                                                     
# OVERVIEW:                                                                         
#    Number of polymer chains:       1                   
#    Number of bonded crosslinks:    0                
#    Number of unbonded crosslinks:  0                
#    Number of grafted chains:       0                  
#    Nanostructure:                  None               
#-----------------------------------------------------------------------------------
                                                                                      
variable structure index test_structure.in                                             
variable simulation index test_settings.in                                            
                                                                                      
# Initialization settings                                                             
units              lj                                                                 
boundary           p p p                                                              
atom_style         bond                                                       
log                log.${simulation}.txt                                            
                                                                                      
# read data from object into file                                                     
read_data          ${structure}                                                     

# define interactions                                                                 
neighbor      2.0 multi                                                           
neigh_modify  every 10 one 1000                                         
pair_style    lj/cut 1.5                                                         
pair_coeff    1 1 1.0 1.0                                  
pair_style    lj/cut 1.5                                                         
pair_coeff    1 2 0.2 1.0                                  
pair_style    lj/cut 1.5                                                         
pair_coeff    2 2 1.0 1.0                                  

bond_style    fene  
special_bonds fene  
bond_coeff    1 30 1.5 1.0 1.0 
compute         1 all stress/atom NULL 

#---------------------------------------------------------------------------------------------------
# EQUILIBRATION STAGE 1                                                                 
# Description: {description}
#---------------------------------------------------------------------------------------------------
dump            1 all cfg 100 dump.test_settings.in_*.cfg mass type xs ys zs fx fy fz c_1[1] c_1[2] c_1[3]
velocity        all create 1.0 70111 
fix             1 all nve/limit 1.5
fix             2 all langevin 1.0 1.0 10.0 70111
thermo_style    custom step temp press pe ke 
thermo          100
run             15000 
unfix 1         
unfix 2         
undump 1        
write_restart   restart.test_settings.in.polylattice1
