
#-----------------------------------------------------------------------------------
# DEFORMATION STAGE                                                                 
#-----------------------------------------------------------------------------------
run             0            
fix		1 all npt temp 0.8 0.8 1.0 y 0 0 1000 z 0 0 1000 drag 2.0  
fix		2 all deform 1 x erate 0.03 units box remap x                             
variable        var_step equal "step"              
variable        var_temp equal "temp"              
variable        var_pxx equal "pxx"              
variable        var_pyy equal "pyy"              
variable        var_pzz equal "pzz"              
variable        var_lx equal "lx"              
variable        var_ly equal "ly"              
variable        var_lz equal "lz"              
fix             datafile all print 100 "${var_step}	${var_temp}	${var_pxx}	${var_pyy}	${var_pzz}	${var_lx}	${var_ly}	${var_lz}" file test_lattice.in.deform.data title "step	temp	pxx	pyy	pzz	lx	ly	lz" screen no 
thermo_style    custom step temp pxx pyy pzz lx ly lz                   
thermo          100                         
run             100000                                
unfix 1                                                
unfix 2                                                
unfix datafile 
