#-----------------------------------------------------------------------------------
# NANOPOLY - POLYMER NANOCOMPOSITE SIMULATION FILE                                  
# Full project files can be found at: https://github.com/aravinthen/nanoPoly        
#-----------------------------------------------------------------------------------
# FILENAME: test_lattice.in                                                        
# DATE: 2020-11-26                                                                     
# OVERVIEW:                                                                         
#    Number of polymer chains:     1                     
#    Number of crosslinks:         0           
#    Nanostructure:                None                 
#-----------------------------------------------------------------------------------
                                                                                      
variable structure index test_structure.in                                             
variable simulation index test_lattice.in                                            
                                                                                      
# Initialization settings                                                             
units              lj                                                                 
boundary           p p p                                                              
atom_style         bond                                                       
log                log.${simulation}.txt                                            
                                                                                      
# read data from object into file                                                     
read_data          ${structure}                                                     
                                                                                      
# define interactions                                                                 
neighbor      0.4 bin                                                                 
neigh_modify  every 10 one 10000                                                      
comm_modify   mode single cutoff 1.9 vel yes                                      
pair_style    lj/cut 1.5                                        
pair_coeff    * * 0.05 0.3            
bond_style    fene  
special_bonds fene  
bond_coeff    1 30.0 3.5 0.05 0.5 

#-----------------------------------------------------------------------------------
# EQUILIBRATION STAGE 1                                                 
# Description: {description}
#-----------------------------------------------------------------------------------
dump            1 all cfg 100 dump.test_lattice.in_*.cfg mass type xs ys zs fx fy fz

velocity        all create 0.05 1231 
fix             1 all nve/limit 0.3
fix             2 all langevin 0.05 0.2 10.0 96648
thermo_style    custom step temp press 
thermo          100
run             20000 
unfix 1         
unfix 2         
write_restart   restart.test_lattice.in.polylattice1
