#-----------------------------------------------------------------------------------
# NANOPOLY - POLYMER NANOCOMPOSITE SIMULATION FILE                                  
# Full project files can be found at: https://github.com/aravinthen/nanoPoly        
#-----------------------------------------------------------------------------------
# FILENAME: test_lattice.in                                                        
# DATE: 2020-10-07                                                                     
# OVERVIEW:                                                                         
#    Number of polymer chains:     5                     
#    Number of crosslinks:         10           
#    Nanostructure:                None                 
#-----------------------------------------------------------------------------------
                                                                                      
variable structure index test_structure.in                                             
variable simulation index test_lattice.in                                            
                                                                                      
# Initialization settings                                                             
units              lj                                                                 
boundary           p p p                                                              
atom_style         bond                                                       
log                log.${simulation}.txt                                            
                                                                                      
# read data from object into file                                                     
read_data          ${structure}                                                     
                                                                                      
# define interactions                                                                 
neighbor      0.4 bin                                                                 
neigh_modify  every 10 one 10000                                                      
comm_modify   mode single cutoff 1.9 vel yes                                      
pair_style    lj/cut 1.5                                        
pair_coeff    * * 1.0 0.5            
bond_style    fene  
special_bonds fene  
bond_coeff    1 30.0 4.5 1.0 1.0 
