#-----------------------------------------------------------------------------------
# NANOPOLY - POLYMER NANOCOMPOSITE SIMULATION FILE                                  
# Full project files can be found at: https://github.com/aravinthen/nanoPoly        
#-----------------------------------------------------------------------------------
# FILENAME: test_settings.in                                                        
# DATE: 2021-09-25                                                                     
# OVERVIEW:                                                                         
#    Number of polymer chains:       1                   
#    Number of bonded crosslinks:    0                
#    Number of unbonded crosslinks:  0                
#    Number of grafted chains:       0                  
#    Nanostructure:                  None               
#-----------------------------------------------------------------------------------
                                                                                      
variable structure index test_structure2.in                                             
variable simulation index test_settings.in                                            
                                                                                      
# Initialization settings                                                             
units              lj                                                                 
boundary           p p p                                                              
atom_style         bond                                                       
log                log.${simulation}.txt                                            
                                                                                      
# read data from object into file                                                     
read_data          ${structure}                                                     

# define interactions                                                                 
neighbor      2.0 multi                                                           
neigh_modify  every 10 one 10000                                         
pair_style    lj/cut 1.5                                                         
pair_coeff    1 1 0.2 0.01                                  
pair_style    lj/cut 1.5                                                         
pair_coeff    1 2 0.2 0.01                                  
pair_style    lj/cut 1.5                                                         
pair_coeff    2 2 1.0 0.01                                  

bond_style    fene  
special_bonds fene  
bond_coeff    1 30 1.5 1.0 1.0 
compute         1 all stress/atom NULL 

#---------------------------------------------------------------------------------------------------
# POTENTIAL MODIFICATION STAGE                                                                 
#---------------------------------------------------------------------------------------------------
pair_style    lj/cut 1.5                                                         
pair_coeff    1 2 0.2 0.0595                                  
pair_style    lj/cut/soft 1.0 1.0 1.5                                         
pair_coeff    1 1 0.2 0.0595 0.1                         
pair_style    lj/cut/soft 1.0 1.0 1.5                                         
pair_coeff    2 2 1.0 0.0595 0.1                         
dump            1 all cfg 100 dump.test_settings.in_*.cfg mass type xs ys zs fx fy fz
velocity        all scale 1 
fix             1 all nve/limit 1.5
fix             2 all langevin 1.0 1.0 10 38236
thermo_style    custom step temp press pe ke 
thermo          100
run             100 
unfix 1         
unfix 2         
undump 1        

pair_style    lj/cut 1.5                                                         
pair_coeff    1 2 0.2 0.109                                  
pair_style    lj/cut/soft 1.0 1.0 1.5                                         
pair_coeff    1 1 0.2 0.109 0.1                         
pair_style    lj/cut/soft 1.0 1.0 1.5                                         
pair_coeff    2 2 1.0 0.109 0.1                         
dump            1 all cfg 100 dump.test_settings.in_*.cfg mass type xs ys zs fx fy fz
velocity        all scale 1 
fix             1 all nve/limit 1.5
fix             2 all langevin 1.0 1.0 10 38236
thermo_style    custom step temp press pe ke 
thermo          100
run             100 
unfix 1         
unfix 2         
undump 1        

pair_style    lj/cut 1.5                                                         
pair_coeff    1 2 0.2 0.1585                                  
pair_style    lj/cut/soft 1.0 1.0 1.5                                         
pair_coeff    1 1 0.2 0.1585 0.1                         
pair_style    lj/cut/soft 1.0 1.0 1.5                                         
pair_coeff    2 2 1.0 0.1585 0.1                         
dump            1 all cfg 100 dump.test_settings.in_*.cfg mass type xs ys zs fx fy fz
velocity        all scale 1 
fix             1 all nve/limit 1.5
fix             2 all langevin 1.0 1.0 10 38236
thermo_style    custom step temp press pe ke 
thermo          100
run             100 
unfix 1         
unfix 2         
undump 1        

pair_style    lj/cut 1.5                                                         
pair_coeff    1 2 0.2 0.208                                  
pair_style    lj/cut/soft 1.0 1.0 1.5                                         
pair_coeff    1 1 0.2 0.208 0.1                         
pair_style    lj/cut/soft 1.0 1.0 1.5                                         
pair_coeff    2 2 1.0 0.208 0.1                         
dump            1 all cfg 100 dump.test_settings.in_*.cfg mass type xs ys zs fx fy fz
velocity        all scale 1 
fix             1 all nve/limit 1.5
fix             2 all langevin 1.0 1.0 10 38236
thermo_style    custom step temp press pe ke 
thermo          100
run             100 
unfix 1         
unfix 2         
undump 1        

pair_style    lj/cut 1.5                                                         
pair_coeff    1 2 0.2 0.2575                                  
pair_style    lj/cut/soft 1.0 1.0 1.5                                         
pair_coeff    1 1 0.2 0.2575 0.1                         
pair_style    lj/cut/soft 1.0 1.0 1.5                                         
pair_coeff    2 2 1.0 0.2575 0.1                         
dump            1 all cfg 100 dump.test_settings.in_*.cfg mass type xs ys zs fx fy fz
velocity        all scale 1 
fix             1 all nve/limit 1.5
fix             2 all langevin 1.0 1.0 10 38236
thermo_style    custom step temp press pe ke 
thermo          100
run             100 
unfix 1         
unfix 2         
undump 1        

pair_style    lj/cut 1.5                                                         
pair_coeff    1 2 0.2 0.307                                  
pair_style    lj/cut/soft 1.0 1.0 1.5                                         
pair_coeff    1 1 0.2 0.307 0.1                         
pair_style    lj/cut/soft 1.0 1.0 1.5                                         
pair_coeff    2 2 1.0 0.307 0.1                         
dump            1 all cfg 100 dump.test_settings.in_*.cfg mass type xs ys zs fx fy fz
velocity        all scale 1 
fix             1 all nve/limit 1.5
fix             2 all langevin 1.0 1.0 10 38236
thermo_style    custom step temp press pe ke 
thermo          100
run             100 
unfix 1         
unfix 2         
undump 1        

pair_style    lj/cut 1.5                                                         
pair_coeff    1 2 0.2 0.3565                                  
pair_style    lj/cut/soft 1.0 1.0 1.5                                         
pair_coeff    1 1 0.2 0.3565 0.1                         
pair_style    lj/cut/soft 1.0 1.0 1.5                                         
pair_coeff    2 2 1.0 0.3565 0.1                         
dump            1 all cfg 100 dump.test_settings.in_*.cfg mass type xs ys zs fx fy fz
velocity        all scale 1 
fix             1 all nve/limit 1.5
fix             2 all langevin 1.0 1.0 10 38236
thermo_style    custom step temp press pe ke 
thermo          100
run             100 
unfix 1         
unfix 2         
undump 1        

pair_style    lj/cut 1.5                                                         
pair_coeff    1 2 0.2 0.406                                  
pair_style    lj/cut/soft 1.0 1.0 1.5                                         
pair_coeff    1 1 0.2 0.406 0.1                         
pair_style    lj/cut/soft 1.0 1.0 1.5                                         
pair_coeff    2 2 1.0 0.406 0.1                         
dump            1 all cfg 100 dump.test_settings.in_*.cfg mass type xs ys zs fx fy fz
velocity        all scale 1 
fix             1 all nve/limit 1.5
fix             2 all langevin 1.0 1.0 10 38236
thermo_style    custom step temp press pe ke 
thermo          100
run             100 
unfix 1         
unfix 2         
undump 1        

pair_style    lj/cut 1.5                                                         
pair_coeff    1 2 0.2 0.4555                                  
pair_style    lj/cut/soft 1.0 1.0 1.5                                         
pair_coeff    1 1 0.2 0.4555 0.1                         
pair_style    lj/cut/soft 1.0 1.0 1.5                                         
pair_coeff    2 2 1.0 0.4555 0.1                         
dump            1 all cfg 100 dump.test_settings.in_*.cfg mass type xs ys zs fx fy fz
velocity        all scale 1 
fix             1 all nve/limit 1.5
fix             2 all langevin 1.0 1.0 10 38236
thermo_style    custom step temp press pe ke 
thermo          100
run             100 
unfix 1         
unfix 2         
undump 1        

pair_style    lj/cut 1.5                                                         
pair_coeff    1 2 0.2 0.505                                  
pair_style    lj/cut/soft 1.0 1.0 1.5                                         
pair_coeff    1 1 0.2 0.505 0.1                         
pair_style    lj/cut/soft 1.0 1.0 1.5                                         
pair_coeff    2 2 1.0 0.505 0.1                         
dump            1 all cfg 100 dump.test_settings.in_*.cfg mass type xs ys zs fx fy fz
velocity        all scale 1 
fix             1 all nve/limit 1.5
fix             2 all langevin 1.0 1.0 10 38236
thermo_style    custom step temp press pe ke 
thermo          100
run             100 
unfix 1         
unfix 2         
undump 1        

pair_style    lj/cut 1.5                                                         
pair_coeff    1 2 0.2 0.5545                                  
pair_style    lj/cut/soft 1.0 1.0 1.5                                         
pair_coeff    1 1 0.2 0.5545 0.1                         
pair_style    lj/cut/soft 1.0 1.0 1.5                                         
pair_coeff    2 2 1.0 0.5545 0.1                         
dump            1 all cfg 100 dump.test_settings.in_*.cfg mass type xs ys zs fx fy fz
velocity        all scale 1 
fix             1 all nve/limit 1.5
fix             2 all langevin 1.0 1.0 10 38236
thermo_style    custom step temp press pe ke 
thermo          100
run             100 
unfix 1         
unfix 2         
undump 1        

pair_style    lj/cut 1.5                                                         
pair_coeff    1 2 0.2 0.604                                  
pair_style    lj/cut/soft 1.0 1.0 1.5                                         
pair_coeff    1 1 0.2 0.604 0.1                         
pair_style    lj/cut/soft 1.0 1.0 1.5                                         
pair_coeff    2 2 1.0 0.604 0.1                         
dump            1 all cfg 100 dump.test_settings.in_*.cfg mass type xs ys zs fx fy fz
velocity        all scale 1 
fix             1 all nve/limit 1.5
fix             2 all langevin 1.0 1.0 10 38236
thermo_style    custom step temp press pe ke 
thermo          100
run             100 
unfix 1         
unfix 2         
undump 1        

pair_style    lj/cut 1.5                                                         
pair_coeff    1 2 0.2 0.6535                                  
pair_style    lj/cut/soft 1.0 1.0 1.5                                         
pair_coeff    1 1 0.2 0.6535 0.1                         
pair_style    lj/cut/soft 1.0 1.0 1.5                                         
pair_coeff    2 2 1.0 0.6535 0.1                         
dump            1 all cfg 100 dump.test_settings.in_*.cfg mass type xs ys zs fx fy fz
velocity        all scale 1 
fix             1 all nve/limit 1.5
fix             2 all langevin 1.0 1.0 10 38236
thermo_style    custom step temp press pe ke 
thermo          100
run             100 
unfix 1         
unfix 2         
undump 1        

pair_style    lj/cut 1.5                                                         
pair_coeff    1 2 0.2 0.703                                  
pair_style    lj/cut/soft 1.0 1.0 1.5                                         
pair_coeff    1 1 0.2 0.703 0.1                         
pair_style    lj/cut/soft 1.0 1.0 1.5                                         
pair_coeff    2 2 1.0 0.703 0.1                         
dump            1 all cfg 100 dump.test_settings.in_*.cfg mass type xs ys zs fx fy fz
velocity        all scale 1 
fix             1 all nve/limit 1.5
fix             2 all langevin 1.0 1.0 10 38236
thermo_style    custom step temp press pe ke 
thermo          100
run             100 
unfix 1         
unfix 2         
undump 1        

pair_style    lj/cut 1.5                                                         
pair_coeff    1 2 0.2 0.7525                                  
pair_style    lj/cut/soft 1.0 1.0 1.5                                         
pair_coeff    1 1 0.2 0.7525 0.1                         
pair_style    lj/cut/soft 1.0 1.0 1.5                                         
pair_coeff    2 2 1.0 0.7525 0.1                         
dump            1 all cfg 100 dump.test_settings.in_*.cfg mass type xs ys zs fx fy fz
velocity        all scale 1 
fix             1 all nve/limit 1.5
fix             2 all langevin 1.0 1.0 10 38236
thermo_style    custom step temp press pe ke 
thermo          100
run             100 
unfix 1         
unfix 2         
undump 1        

pair_style    lj/cut 1.5                                                         
pair_coeff    1 2 0.2 0.802                                  
pair_style    lj/cut/soft 1.0 1.0 1.5                                         
pair_coeff    1 1 0.2 0.802 0.1                         
pair_style    lj/cut/soft 1.0 1.0 1.5                                         
pair_coeff    2 2 1.0 0.802 0.1                         
dump            1 all cfg 100 dump.test_settings.in_*.cfg mass type xs ys zs fx fy fz
velocity        all scale 1 
fix             1 all nve/limit 1.5
fix             2 all langevin 1.0 1.0 10 38236
thermo_style    custom step temp press pe ke 
thermo          100
run             100 
unfix 1         
unfix 2         
undump 1        

pair_style    lj/cut 1.5                                                         
pair_coeff    1 2 0.2 0.8515                                  
pair_style    lj/cut/soft 1.0 1.0 1.5                                         
pair_coeff    1 1 0.2 0.8515 0.1                         
pair_style    lj/cut/soft 1.0 1.0 1.5                                         
pair_coeff    2 2 1.0 0.8515 0.1                         
dump            1 all cfg 100 dump.test_settings.in_*.cfg mass type xs ys zs fx fy fz
velocity        all scale 1 
fix             1 all nve/limit 1.5
fix             2 all langevin 1.0 1.0 10 38236
thermo_style    custom step temp press pe ke 
thermo          100
run             100 
unfix 1         
unfix 2         
undump 1        

pair_style    lj/cut 1.5                                                         
pair_coeff    1 2 0.2 0.901                                  
pair_style    lj/cut/soft 1.0 1.0 1.5                                         
pair_coeff    1 1 0.2 0.901 0.1                         
pair_style    lj/cut/soft 1.0 1.0 1.5                                         
pair_coeff    2 2 1.0 0.901 0.1                         
dump            1 all cfg 100 dump.test_settings.in_*.cfg mass type xs ys zs fx fy fz
velocity        all scale 1 
fix             1 all nve/limit 1.5
fix             2 all langevin 1.0 1.0 10 38236
thermo_style    custom step temp press pe ke 
thermo          100
run             100 
unfix 1         
unfix 2         
undump 1        

pair_style    lj/cut 1.5                                                         
pair_coeff    1 2 0.2 0.9505                                  
pair_style    lj/cut/soft 1.0 1.0 1.5                                         
pair_coeff    1 1 0.2 0.9505 0.1                         
pair_style    lj/cut/soft 1.0 1.0 1.5                                         
pair_coeff    2 2 1.0 0.9505 0.1                         
dump            1 all cfg 100 dump.test_settings.in_*.cfg mass type xs ys zs fx fy fz
velocity        all scale 1 
fix             1 all nve/limit 1.5
fix             2 all langevin 1.0 1.0 10 38236
thermo_style    custom step temp press pe ke 
thermo          100
run             100 
unfix 1         
unfix 2         
undump 1        

pair_style    lj/cut 1.5                                                         
pair_coeff    1 2 0.2 1.0                                  
pair_style    lj/cut/soft 1.0 1.0 1.5                                         
pair_coeff    1 1 0.2 1.0 0.1                         
pair_style    lj/cut/soft 1.0 1.0 1.5                                         
pair_coeff    2 2 1.0 1.0 0.1                         
dump            1 all cfg 100 dump.test_settings.in_*.cfg mass type xs ys zs fx fy fz
velocity        all scale 1 
fix             1 all nve/limit 1.5
fix             2 all langevin 1.0 1.0 10 38236
thermo_style    custom step temp press pe ke 
thermo          100
run             100 
unfix 1         
unfix 2         
undump 1        


#---------------------------------------------------------------------------------------------------
# POTENTIAL MODIFICATION STAGE                                                                 
#---------------------------------------------------------------------------------------------------
pair_style    lj/cut 1.5                                                         
pair_coeff    1 2 0.2 1.0                                  
pair_style    lj/cut/soft 1.0 1.0 1.5                                         
pair_coeff    1 1 0.2 1.0 0.109                         
pair_style    lj/cut/soft 1.0 1.0 1.5                                         
pair_coeff    2 2 1.0 1.0 0.109                         
dump            1 all cfg 100 dump.test_settings.in_*.cfg mass type xs ys zs fx fy fz
velocity        all scale 1.0 
fix             1 all nve/limit 1.5
fix             2 all langevin 1.0 1.0 1 38236
thermo_style    custom step temp press pe ke 
thermo          100
run             1000 
unfix 1         
unfix 2         
undump 1        

pair_style    lj/cut 1.5                                                         
pair_coeff    1 2 0.2 1.0                                  
pair_style    lj/cut/soft 1.0 1.0 1.5                                         
pair_coeff    1 1 0.2 1.0 0.118                         
pair_style    lj/cut/soft 1.0 1.0 1.5                                         
pair_coeff    2 2 1.0 1.0 0.118                         
dump            1 all cfg 100 dump.test_settings.in_*.cfg mass type xs ys zs fx fy fz
velocity        all scale 1.0 
fix             1 all nve/limit 1.5
fix             2 all langevin 1.0 1.0 1 38236
thermo_style    custom step temp press pe ke 
thermo          100
run             1000 
unfix 1         
unfix 2         
undump 1        

pair_style    lj/cut 1.5                                                         
pair_coeff    1 2 0.2 1.0                                  
pair_style    lj/cut/soft 1.0 1.0 1.5                                         
pair_coeff    1 1 0.2 1.0 0.127                         
pair_style    lj/cut/soft 1.0 1.0 1.5                                         
pair_coeff    2 2 1.0 1.0 0.127                         
dump            1 all cfg 100 dump.test_settings.in_*.cfg mass type xs ys zs fx fy fz
velocity        all scale 1.0 
fix             1 all nve/limit 1.5
fix             2 all langevin 1.0 1.0 1 38236
thermo_style    custom step temp press pe ke 
thermo          100
run             1000 
unfix 1         
unfix 2         
undump 1        

pair_style    lj/cut 1.5                                                         
pair_coeff    1 2 0.2 1.0                                  
pair_style    lj/cut/soft 1.0 1.0 1.5                                         
pair_coeff    1 1 0.2 1.0 0.136                         
pair_style    lj/cut/soft 1.0 1.0 1.5                                         
pair_coeff    2 2 1.0 1.0 0.136                         
dump            1 all cfg 100 dump.test_settings.in_*.cfg mass type xs ys zs fx fy fz
velocity        all scale 1.0 
fix             1 all nve/limit 1.5
fix             2 all langevin 1.0 1.0 1 38236
thermo_style    custom step temp press pe ke 
thermo          100
run             1000 
unfix 1         
unfix 2         
undump 1        

pair_style    lj/cut 1.5                                                         
pair_coeff    1 2 0.2 1.0                                  
pair_style    lj/cut/soft 1.0 1.0 1.5                                         
pair_coeff    1 1 0.2 1.0 0.145                         
pair_style    lj/cut/soft 1.0 1.0 1.5                                         
pair_coeff    2 2 1.0 1.0 0.145                         
dump            1 all cfg 100 dump.test_settings.in_*.cfg mass type xs ys zs fx fy fz
velocity        all scale 1.0 
fix             1 all nve/limit 1.5
fix             2 all langevin 1.0 1.0 1 38236
thermo_style    custom step temp press pe ke 
thermo          100
run             1000 
unfix 1         
unfix 2         
undump 1        

pair_style    lj/cut 1.5                                                         
pair_coeff    1 2 0.2 1.0                                  
pair_style    lj/cut/soft 1.0 1.0 1.5                                         
pair_coeff    1 1 0.2 1.0 0.154                         
pair_style    lj/cut/soft 1.0 1.0 1.5                                         
pair_coeff    2 2 1.0 1.0 0.154                         
dump            1 all cfg 100 dump.test_settings.in_*.cfg mass type xs ys zs fx fy fz
velocity        all scale 1.0 
fix             1 all nve/limit 1.5
fix             2 all langevin 1.0 1.0 1 38236
thermo_style    custom step temp press pe ke 
thermo          100
run             1000 
unfix 1         
unfix 2         
undump 1        

pair_style    lj/cut 1.5                                                         
pair_coeff    1 2 0.2 1.0                                  
pair_style    lj/cut/soft 1.0 1.0 1.5                                         
pair_coeff    1 1 0.2 1.0 0.163                         
pair_style    lj/cut/soft 1.0 1.0 1.5                                         
pair_coeff    2 2 1.0 1.0 0.163                         
dump            1 all cfg 100 dump.test_settings.in_*.cfg mass type xs ys zs fx fy fz
velocity        all scale 1.0 
fix             1 all nve/limit 1.5
fix             2 all langevin 1.0 1.0 1 38236
thermo_style    custom step temp press pe ke 
thermo          100
run             1000 
unfix 1         
unfix 2         
undump 1        

pair_style    lj/cut 1.5                                                         
pair_coeff    1 2 0.2 1.0                                  
pair_style    lj/cut/soft 1.0 1.0 1.5                                         
pair_coeff    1 1 0.2 1.0 0.172                         
pair_style    lj/cut/soft 1.0 1.0 1.5                                         
pair_coeff    2 2 1.0 1.0 0.172                         
dump            1 all cfg 100 dump.test_settings.in_*.cfg mass type xs ys zs fx fy fz
velocity        all scale 1.0 
fix             1 all nve/limit 1.5
fix             2 all langevin 1.0 1.0 1 38236
thermo_style    custom step temp press pe ke 
thermo          100
run             1000 
unfix 1         
unfix 2         
undump 1        

pair_style    lj/cut 1.5                                                         
pair_coeff    1 2 0.2 1.0                                  
pair_style    lj/cut/soft 1.0 1.0 1.5                                         
pair_coeff    1 1 0.2 1.0 0.181                         
pair_style    lj/cut/soft 1.0 1.0 1.5                                         
pair_coeff    2 2 1.0 1.0 0.181                         
dump            1 all cfg 100 dump.test_settings.in_*.cfg mass type xs ys zs fx fy fz
velocity        all scale 1.0 
fix             1 all nve/limit 1.5
fix             2 all langevin 1.0 1.0 1 38236
thermo_style    custom step temp press pe ke 
thermo          100
run             1000 
unfix 1         
unfix 2         
undump 1        

pair_style    lj/cut 1.5                                                         
pair_coeff    1 2 0.2 1.0                                  
pair_style    lj/cut/soft 1.0 1.0 1.5                                         
pair_coeff    1 1 0.2 1.0 0.19                         
pair_style    lj/cut/soft 1.0 1.0 1.5                                         
pair_coeff    2 2 1.0 1.0 0.19                         
dump            1 all cfg 100 dump.test_settings.in_*.cfg mass type xs ys zs fx fy fz
velocity        all scale 1.0 
fix             1 all nve/limit 1.5
fix             2 all langevin 1.0 1.0 1 38236
thermo_style    custom step temp press pe ke 
thermo          100
run             1000 
unfix 1         
unfix 2         
undump 1        

pair_style    lj/cut 1.5                                                         
pair_coeff    1 2 0.2 1.0                                  
pair_style    lj/cut/soft 1.0 1.0 1.5                                         
pair_coeff    1 1 0.2 1.0 0.199                         
pair_style    lj/cut/soft 1.0 1.0 1.5                                         
pair_coeff    2 2 1.0 1.0 0.199                         
dump            1 all cfg 100 dump.test_settings.in_*.cfg mass type xs ys zs fx fy fz
velocity        all scale 1.0 
fix             1 all nve/limit 1.5
fix             2 all langevin 1.0 1.0 1 38236
thermo_style    custom step temp press pe ke 
thermo          100
run             1000 
unfix 1         
unfix 2         
undump 1        

pair_style    lj/cut 1.5                                                         
pair_coeff    1 2 0.2 1.0                                  
pair_style    lj/cut/soft 1.0 1.0 1.5                                         
pair_coeff    1 1 0.2 1.0 0.208                         
pair_style    lj/cut/soft 1.0 1.0 1.5                                         
pair_coeff    2 2 1.0 1.0 0.208                         
dump            1 all cfg 100 dump.test_settings.in_*.cfg mass type xs ys zs fx fy fz
velocity        all scale 1.0 
fix             1 all nve/limit 1.5
fix             2 all langevin 1.0 1.0 1 38236
thermo_style    custom step temp press pe ke 
thermo          100
run             1000 
unfix 1         
unfix 2         
undump 1        

pair_style    lj/cut 1.5                                                         
pair_coeff    1 2 0.2 1.0                                  
pair_style    lj/cut/soft 1.0 1.0 1.5                                         
pair_coeff    1 1 0.2 1.0 0.217                         
pair_style    lj/cut/soft 1.0 1.0 1.5                                         
pair_coeff    2 2 1.0 1.0 0.217                         
dump            1 all cfg 100 dump.test_settings.in_*.cfg mass type xs ys zs fx fy fz
velocity        all scale 1.0 
fix             1 all nve/limit 1.5
fix             2 all langevin 1.0 1.0 1 38236
thermo_style    custom step temp press pe ke 
thermo          100
run             1000 
unfix 1         
unfix 2         
undump 1        

pair_style    lj/cut 1.5                                                         
pair_coeff    1 2 0.2 1.0                                  
pair_style    lj/cut/soft 1.0 1.0 1.5                                         
pair_coeff    1 1 0.2 1.0 0.226                         
pair_style    lj/cut/soft 1.0 1.0 1.5                                         
pair_coeff    2 2 1.0 1.0 0.226                         
dump            1 all cfg 100 dump.test_settings.in_*.cfg mass type xs ys zs fx fy fz
velocity        all scale 1.0 
fix             1 all nve/limit 1.5
fix             2 all langevin 1.0 1.0 1 38236
thermo_style    custom step temp press pe ke 
thermo          100
run             1000 
unfix 1         
unfix 2         
undump 1        

pair_style    lj/cut 1.5                                                         
pair_coeff    1 2 0.2 1.0                                  
pair_style    lj/cut/soft 1.0 1.0 1.5                                         
pair_coeff    1 1 0.2 1.0 0.235                         
pair_style    lj/cut/soft 1.0 1.0 1.5                                         
pair_coeff    2 2 1.0 1.0 0.235                         
dump            1 all cfg 100 dump.test_settings.in_*.cfg mass type xs ys zs fx fy fz
velocity        all scale 1.0 
fix             1 all nve/limit 1.5
fix             2 all langevin 1.0 1.0 1 38236
thermo_style    custom step temp press pe ke 
thermo          100
run             1000 
unfix 1         
unfix 2         
undump 1        

pair_style    lj/cut 1.5                                                         
pair_coeff    1 2 0.2 1.0                                  