#-----------------------------------------------------------------------------------
# NANOPOLY - POLYMER NANOCOMPOSITE SIMULATION FILE                                  
# Full project files can be found at: https://github.com/aravinthen/nanoPoly        
#-----------------------------------------------------------------------------------
# FILENAME: int_settings.in                                                        
# DATE: 2021-09-23                                                                     
# OVERVIEW:                                                                         
#    Number of polymer chains:       10                   
#    Number of bonded crosslinks:    0                
#    Number of unbonded crosslinks:  0                
#    Number of grafted chains:       0                  
#    Nanostructure:                  None               
#-----------------------------------------------------------------------------------
                                                                                      
variable structure index int_structure.in                                             
variable simulation index int_settings.in                                            
                                                                                      
# Initialization settings                                                             
units              lj                                                                 
boundary           p p p                                                              
atom_style         bond                                                       
log                log.${simulation}.txt                                            
                                                                                      
# read data from object into file                                                     
read_data          ${structure}                                                     

# define interactions                                                                 
neighbor      4.0 multi                                                           
neigh_modify  every 10 one 10000                                         
pair_style    lj/cut 1.5                                                         
pair_coeff    1 1 0.2 0.1                                  
pair_style    lj/cut 1.5                                                         
pair_coeff    1 2 0.2 0.1                                  
pair_style    lj/cut 1.5                                                         
pair_coeff    2 2 0.5 0.1                                  

bond_style    fene  
special_bonds fene  
bond_coeff    1 30 1.5 1.0 1.0 
compute         1 all stress/atom NULL 

#---------------------------------------------------------------------------------------------------
# POTENTIAL MODIFICATION STAGE                                                                 
#---------------------------------------------------------------------------------------------------
pair_style    lj/cut/soft 1.0 1.0 1.5                                         
pair_coeff    1 2 0.2 0.145 0.1                         
pair_style    lj/cut/soft 1.0 1.0 1.5                                         
pair_coeff    1 1 0.2 0.145 0.1                         
pair_style    lj/cut/soft 1.0 1.0 1.5                                         
pair_coeff    2 2 0.5 0.145 0.1                         
dump            1 all cfg 100 dump.int_settings.in_*.cfg mass type xs ys zs fx fy fz
velocity        all create 0.0 29976 
fix             1 all nve/limit 1.5
fix             2 all langevin 0.0 0.0 10 29976
thermo_style    custom step temp press pe ke 
thermo          100
run             100 
unfix 1         
unfix 2         
undump 1        

pair_style    lj/cut/soft 1.0 1.0 1.5                                         
pair_coeff    1 2 0.2 0.19 0.1                         
pair_style    lj/cut/soft 1.0 1.0 1.5                                         
pair_coeff    1 1 0.2 0.19 0.1                         
pair_style    lj/cut/soft 1.0 1.0 1.5                                         
pair_coeff    2 2 0.5 0.19 0.1                         
dump            1 all cfg 100 dump.int_settings.in_*.cfg mass type xs ys zs fx fy fz
velocity        all create 0.0 29976 
fix             1 all nve/limit 1.5
fix             2 all langevin 0.0 0.0 10 29976
thermo_style    custom step temp press pe ke 
thermo          100
run             100 
unfix 1         
unfix 2         
undump 1        

pair_style    lj/cut/soft 1.0 1.0 1.5                                         
pair_coeff    1 2 0.2 0.235 0.1                         
pair_style    lj/cut/soft 1.0 1.0 1.5                                         
pair_coeff    1 1 0.2 0.235 0.1                         
pair_style    lj/cut/soft 1.0 1.0 1.5                                         
pair_coeff    2 2 0.5 0.235 0.1                         
dump            1 all cfg 100 dump.int_settings.in_*.cfg mass type xs ys zs fx fy fz
velocity        all create 0.0 29976 
fix             1 all nve/limit 1.5
fix             2 all langevin 0.0 0.0 10 29976
thermo_style    custom step temp press pe ke 
thermo          100
run             100 
unfix 1         
unfix 2         
undump 1        

pair_style    lj/cut/soft 1.0 1.0 1.5                                         
pair_coeff    1 2 0.2 0.28 0.1                         
pair_style    lj/cut/soft 1.0 1.0 1.5                                         
pair_coeff    1 1 0.2 0.28 0.1                         
pair_style    lj/cut/soft 1.0 1.0 1.5                                         
pair_coeff    2 2 0.5 0.28 0.1                         
dump            1 all cfg 100 dump.int_settings.in_*.cfg mass type xs ys zs fx fy fz
velocity        all create 0.0 29976 
fix             1 all nve/limit 1.5
fix             2 all langevin 0.0 0.0 10 29976
thermo_style    custom step temp press pe ke 
thermo          100
run             100 
unfix 1         
unfix 2         
undump 1        

pair_style    lj/cut/soft 1.0 1.0 1.5                                         
pair_coeff    1 2 0.2 0.325 0.1                         
pair_style    lj/cut/soft 1.0 1.0 1.5                                         
pair_coeff    1 1 0.2 0.325 0.1                         
pair_style    lj/cut/soft 1.0 1.0 1.5                                         
pair_coeff    2 2 0.5 0.325 0.1                         
dump            1 all cfg 100 dump.int_settings.in_*.cfg mass type xs ys zs fx fy fz
velocity        all create 0.0 29976 
fix             1 all nve/limit 1.5
fix             2 all langevin 0.0 0.0 10 29976
thermo_style    custom step temp press pe ke 
thermo          100
run             100 
unfix 1         
unfix 2         
undump 1        

pair_style    lj/cut/soft 1.0 1.0 1.5                                         
pair_coeff    1 2 0.2 0.37 0.1                         
pair_style    lj/cut/soft 1.0 1.0 1.5                                         
pair_coeff    1 1 0.2 0.37 0.1                         
pair_style    lj/cut/soft 1.0 1.0 1.5                                         
pair_coeff    2 2 0.5 0.37 0.1                         
dump            1 all cfg 100 dump.int_settings.in_*.cfg mass type xs ys zs fx fy fz
velocity        all create 0.0 29976 
fix             1 all nve/limit 1.5
fix             2 all langevin 0.0 0.0 10 29976
thermo_style    custom step temp press pe ke 
thermo          100
run             100 
unfix 1         
unfix 2         
undump 1        

pair_style    lj/cut/soft 1.0 1.0 1.5                                         
pair_coeff    1 2 0.2 0.415 0.1                         
pair_style    lj/cut/soft 1.0 1.0 1.5                                         
pair_coeff    1 1 0.2 0.415 0.1                         
pair_style    lj/cut/soft 1.0 1.0 1.5                                         
pair_coeff    2 2 0.5 0.415 0.1                         
dump            1 all cfg 100 dump.int_settings.in_*.cfg mass type xs ys zs fx fy fz
velocity        all create 0.0 29976 
fix             1 all nve/limit 1.5
fix             2 all langevin 0.0 0.0 10 29976
thermo_style    custom step temp press pe ke 
thermo          100
run             100 
unfix 1         
unfix 2         
undump 1        

pair_style    lj/cut/soft 1.0 1.0 1.5                                         
pair_coeff    1 2 0.2 0.46 0.1                         
pair_style    lj/cut/soft 1.0 1.0 1.5                                         
pair_coeff    1 1 0.2 0.46 0.1                         
pair_style    lj/cut/soft 1.0 1.0 1.5                                         
pair_coeff    2 2 0.5 0.46 0.1                         
dump            1 all cfg 100 dump.int_settings.in_*.cfg mass type xs ys zs fx fy fz
velocity        all create 0.0 29976 
fix             1 all nve/limit 1.5
fix             2 all langevin 0.0 0.0 10 29976
thermo_style    custom step temp press pe ke 
thermo          100
run             100 
unfix 1         
unfix 2         
undump 1        

pair_style    lj/cut/soft 1.0 1.0 1.5                                         
pair_coeff    1 2 0.2 0.505 0.1                         
pair_style    lj/cut/soft 1.0 1.0 1.5                                         
pair_coeff    1 1 0.2 0.505 0.1                         
pair_style    lj/cut/soft 1.0 1.0 1.5                                         
pair_coeff    2 2 0.5 0.505 0.1                         
dump            1 all cfg 100 dump.int_settings.in_*.cfg mass type xs ys zs fx fy fz
velocity        all create 0.0 29976 
fix             1 all nve/limit 1.5
fix             2 all langevin 0.0 0.0 10 29976
thermo_style    custom step temp press pe ke 
thermo          100
run             100 
unfix 1         
unfix 2         
undump 1        

pair_style    lj/cut/soft 1.0 1.0 1.5                                         
pair_coeff    1 2 0.2 0.55 0.1                         
pair_style    lj/cut/soft 1.0 1.0 1.5                                         
pair_coeff    1 1 0.2 0.55 0.1                         
pair_style    lj/cut/soft 1.0 1.0 1.5                                         
pair_coeff    2 2 0.5 0.55 0.1                         
dump            1 all cfg 100 dump.int_settings.in_*.cfg mass type xs ys zs fx fy fz
velocity        all create 0.0 29976 
fix             1 all nve/limit 1.5
fix             2 all langevin 0.0 0.0 10 29976
thermo_style    custom step temp press pe ke 
thermo          100
run             100 
unfix 1         
unfix 2         
undump 1        

pair_style    lj/cut/soft 1.0 1.0 1.5                                         
pair_coeff    1 2 0.2 0.595 0.1                         
pair_style    lj/cut/soft 1.0 1.0 1.5                                         
pair_coeff    1 1 0.2 0.595 0.1                         
pair_style    lj/cut/soft 1.0 1.0 1.5                                         
pair_coeff    2 2 0.5 0.595 0.1                         
dump            1 all cfg 100 dump.int_settings.in_*.cfg mass type xs ys zs fx fy fz
velocity        all create 0.0 29976 
fix             1 all nve/limit 1.5
fix             2 all langevin 0.0 0.0 10 29976
thermo_style    custom step temp press pe ke 
thermo          100
run             100 
unfix 1         
unfix 2         
undump 1        

pair_style    lj/cut/soft 1.0 1.0 1.5                                         
pair_coeff    1 2 0.2 0.64 0.1                         
pair_style    lj/cut/soft 1.0 1.0 1.5                                         
pair_coeff    1 1 0.2 0.64 0.1                         
pair_style    lj/cut/soft 1.0 1.0 1.5                                         
pair_coeff    2 2 0.5 0.64 0.1                         
dump            1 all cfg 100 dump.int_settings.in_*.cfg mass type xs ys zs fx fy fz
velocity        all create 0.0 29976 
fix             1 all nve/limit 1.5
fix             2 all langevin 0.0 0.0 10 29976
thermo_style    custom step temp press pe ke 
thermo          100
run             100 
unfix 1         
unfix 2         
undump 1        

pair_style    lj/cut/soft 1.0 1.0 1.5                                         
pair_coeff    1 2 0.2 0.685 0.1                         
pair_style    lj/cut/soft 1.0 1.0 1.5                                         
pair_coeff    1 1 0.2 0.685 0.1                         
pair_style    lj/cut/soft 1.0 1.0 1.5                                         
pair_coeff    2 2 0.5 0.685 0.1                         
dump            1 all cfg 100 dump.int_settings.in_*.cfg mass type xs ys zs fx fy fz
velocity        all create 0.0 29976 
fix             1 all nve/limit 1.5
fix             2 all langevin 0.0 0.0 10 29976
thermo_style    custom step temp press pe ke 
thermo          100
run             100 
unfix 1         
unfix 2         
undump 1        

pair_style    lj/cut/soft 1.0 1.0 1.5                                         
pair_coeff    1 2 0.2 0.73 0.1                         
pair_style    lj/cut/soft 1.0 1.0 1.5                                         
pair_coeff    1 1 0.2 0.73 0.1                         
pair_style    lj/cut/soft 1.0 1.0 1.5                                         
pair_coeff    2 2 0.5 0.73 0.1                         
dump            1 all cfg 100 dump.int_settings.in_*.cfg mass type xs ys zs fx fy fz
velocity        all create 0.0 29976 
fix             1 all nve/limit 1.5
fix             2 all langevin 0.0 0.0 10 29976
thermo_style    custom step temp press pe ke 
thermo          100
run             100 
unfix 1         
unfix 2         
undump 1        

pair_style    lj/cut/soft 1.0 1.0 1.5                                         
pair_coeff    1 2 0.2 0.775 0.1                         
pair_style    lj/cut/soft 1.0 1.0 1.5                                         
pair_coeff    1 1 0.2 0.775 0.1                         
pair_style    lj/cut/soft 1.0 1.0 1.5                                         
pair_coeff    2 2 0.5 0.775 0.1                         
dump            1 all cfg 100 dump.int_settings.in_*.cfg mass type xs ys zs fx fy fz
velocity        all create 0.0 29976 
fix             1 all nve/limit 1.5
fix             2 all langevin 0.0 0.0 10 29976
thermo_style    custom step temp press pe ke 
thermo          100
run             100 
unfix 1         
unfix 2         
undump 1        

pair_style    lj/cut/soft 1.0 1.0 1.5                                         
pair_coeff    1 2 0.2 0.82 0.1                         
pair_style    lj/cut/soft 1.0 1.0 1.5                                         
pair_coeff    1 1 0.2 0.82 0.1                         
pair_style    lj/cut/soft 1.0 1.0 1.5                                         
pair_coeff    2 2 0.5 0.82 0.1                         
dump            1 all cfg 100 dump.int_settings.in_*.cfg mass type xs ys zs fx fy fz
velocity        all create 0.0 29976 
fix             1 all nve/limit 1.5
fix             2 all langevin 0.0 0.0 10 29976
thermo_style    custom step temp press pe ke 
thermo          100
run             100 
unfix 1         
unfix 2         
undump 1        

pair_style    lj/cut/soft 1.0 1.0 1.5                                         
pair_coeff    1 2 0.2 0.865 0.1                         
pair_style    lj/cut/soft 1.0 1.0 1.5                                         
pair_coeff    1 1 0.2 0.865 0.1                         
pair_style    lj/cut/soft 1.0 1.0 1.5                                         
pair_coeff    2 2 0.5 0.865 0.1                         
dump            1 all cfg 100 dump.int_settings.in_*.cfg mass type xs ys zs fx fy fz
velocity        all create 0.0 29976 
fix             1 all nve/limit 1.5
fix             2 all langevin 0.0 0.0 10 29976
thermo_style    custom step temp press pe ke 
thermo          100
run             100 
unfix 1         
unfix 2         
undump 1        

pair_style    lj/cut/soft 1.0 1.0 1.5                                         
pair_coeff    1 2 0.2 0.91 0.1                         
pair_style    lj/cut/soft 1.0 1.0 1.5                                         
pair_coeff    1 1 0.2 0.91 0.1                         
pair_style    lj/cut/soft 1.0 1.0 1.5                                         
pair_coeff    2 2 0.5 0.91 0.1                         
dump            1 all cfg 100 dump.int_settings.in_*.cfg mass type xs ys zs fx fy fz
velocity        all create 0.0 29976 
fix             1 all nve/limit 1.5
fix             2 all langevin 0.0 0.0 10 29976
thermo_style    custom step temp press pe ke 
thermo          100
run             100 
unfix 1         
unfix 2         
undump 1        

pair_style    lj/cut/soft 1.0 1.0 1.5                                         
pair_coeff    1 2 0.2 0.955 0.1                         
pair_style    lj/cut/soft 1.0 1.0 1.5                                         
pair_coeff    1 1 0.2 0.955 0.1                         
pair_style    lj/cut/soft 1.0 1.0 1.5                                         
pair_coeff    2 2 0.5 0.955 0.1                         
dump            1 all cfg 100 dump.int_settings.in_*.cfg mass type xs ys zs fx fy fz
velocity        all create 0.0 29976 
fix             1 all nve/limit 1.5
fix             2 all langevin 0.0 0.0 10 29976
thermo_style    custom step temp press pe ke 
thermo          100
run             100 
unfix 1         
unfix 2         
undump 1        

pair_style    lj/cut/soft 1.0 1.0 1.5                                         
pair_coeff    1 2 0.2 1.0 0.1                         
pair_style    lj/cut/soft 1.0 1.0 1.5                                         
pair_coeff    1 1 0.2 1.0 0.1                         
pair_style    lj/cut/soft 1.0 1.0 1.5                                         
pair_coeff    2 2 0.5 1.0 0.1                         
dump            1 all cfg 100 dump.int_settings.in_*.cfg mass type xs ys zs fx fy fz
velocity        all create 0.0 29976 
fix             1 all nve/limit 1.5
fix             2 all langevin 0.0 0.0 10 29976
thermo_style    custom step temp press pe ke 
thermo          100
run             100 
unfix 1         
unfix 2         
undump 1        


#---------------------------------------------------------------------------------------------------
# POTENTIAL MODIFICATION STAGE                                                                 
#---------------------------------------------------------------------------------------------------
pair_style    lj/cut/soft 1.0 1.0 1.5                                         
pair_coeff    1 2 0.2 1.0 0.109                         
pair_style    lj/cut/soft 1.0 1.0 1.5                                         
pair_coeff    1 1 0.2 1.0 0.109                         
pair_style    lj/cut/soft 1.0 1.0 1.5                                         
pair_coeff    2 2 0.5 1.0 0.109                         
dump            1 all cfg 100 dump.int_settings.in_*.cfg mass type xs ys zs fx fy fz
velocity        all create 0.0 29976 
fix             1 all nve/limit 1.5
fix             2 all langevin 0.0 0.0 1 29976
thermo_style    custom step temp press pe ke 
thermo          100
run             200 
unfix 1         
unfix 2         
undump 1        

pair_style    lj/cut/soft 1.0 1.0 1.5                                         
pair_coeff    1 2 0.2 1.0 0.118                         
pair_style    lj/cut/soft 1.0 1.0 1.5                                         
pair_coeff    1 1 0.2 1.0 0.118                         
pair_style    lj/cut/soft 1.0 1.0 1.5                                         
pair_coeff    2 2 0.5 1.0 0.118                         
dump            1 all cfg 100 dump.int_settings.in_*.cfg mass type xs ys zs fx fy fz
velocity        all create 0.0 29976 
fix             1 all nve/limit 1.5
fix             2 all langevin 0.0 0.0 1 29976
thermo_style    custom step temp press pe ke 
thermo          100
run             200 
unfix 1         
unfix 2         
undump 1        

pair_style    lj/cut/soft 1.0 1.0 1.5                                         
pair_coeff    1 2 0.2 1.0 0.127                         
pair_style    lj/cut/soft 1.0 1.0 1.5                                         
pair_coeff    1 1 0.2 1.0 0.127                         
pair_style    lj/cut/soft 1.0 1.0 1.5                                         
pair_coeff    2 2 0.5 1.0 0.127                         
dump            1 all cfg 100 dump.int_settings.in_*.cfg mass type xs ys zs fx fy fz
velocity        all create 0.0 29976 
fix             1 all nve/limit 1.5
fix             2 all langevin 0.0 0.0 1 29976
thermo_style    custom step temp press pe ke 
thermo          100
run             200 
unfix 1         
unfix 2         
undump 1        

pair_style    lj/cut/soft 1.0 1.0 1.5                                         
pair_coeff    1 2 0.2 1.0 0.136                         
pair_style    lj/cut/soft 1.0 1.0 1.5                                         
pair_coeff    1 1 0.2 1.0 0.136                         
pair_style    lj/cut/soft 1.0 1.0 1.5                                         
pair_coeff    2 2 0.5 1.0 0.136                         
dump            1 all cfg 100 dump.int_settings.in_*.cfg mass type xs ys zs fx fy fz
velocity        all create 0.0 29976 
fix             1 all nve/limit 1.5
fix             2 all langevin 0.0 0.0 1 29976
thermo_style    custom step temp press pe ke 
thermo          100
run             200 
unfix 1         
unfix 2         
undump 1        

pair_style    lj/cut/soft 1.0 1.0 1.5                                         
pair_coeff    1 2 0.2 1.0 0.145                         
pair_style    lj/cut/soft 1.0 1.0 1.5                                         
pair_coeff    1 1 0.2 1.0 0.145                         
pair_style    lj/cut/soft 1.0 1.0 1.5                                         
pair_coeff    2 2 0.5 1.0 0.145                         
dump            1 all cfg 100 dump.int_settings.in_*.cfg mass type xs ys zs fx fy fz
velocity        all create 0.0 29976 
fix             1 all nve/limit 1.5
fix             2 all langevin 0.0 0.0 1 29976
thermo_style    custom step temp press pe ke 
thermo          100
run             200 
unfix 1         
unfix 2         
undump 1        

pair_style    lj/cut/soft 1.0 1.0 1.5                                         
pair_coeff    1 2 0.2 1.0 0.154                         
pair_style    lj/cut/soft 1.0 1.0 1.5                                         
pair_coeff    1 1 0.2 1.0 0.154                         
pair_style    lj/cut/soft 1.0 1.0 1.5                                         
pair_coeff    2 2 0.5 1.0 0.154                         
dump            1 all cfg 100 dump.int_settings.in_*.cfg mass type xs ys zs fx fy fz
velocity        all create 0.0 29976 
fix             1 all nve/limit 1.5
fix             2 all langevin 0.0 0.0 1 29976
thermo_style    custom step temp press pe ke 
thermo          100
run             200 
unfix 1         
unfix 2         
undump 1        

pair_style    lj/cut/soft 1.0 1.0 1.5                                         
pair_coeff    1 2 0.2 1.0 0.163                         
pair_style    lj/cut/soft 1.0 1.0 1.5                                         
pair_coeff    1 1 0.2 1.0 0.163                         
pair_style    lj/cut/soft 1.0 1.0 1.5                                         
pair_coeff    2 2 0.5 1.0 0.163                         
dump            1 all cfg 100 dump.int_settings.in_*.cfg mass type xs ys zs fx fy fz
velocity        all create 0.0 29976 
fix             1 all nve/limit 1.5
fix             2 all langevin 0.0 0.0 1 29976
thermo_style    custom step temp press pe ke 
thermo          100
run             200 
unfix 1         
unfix 2         
undump 1        

pair_style    lj/cut/soft 1.0 1.0 1.5                                         
pair_coeff    1 2 0.2 1.0 0.172                         
pair_style    lj/cut/soft 1.0 1.0 1.5                                         
pair_coeff    1 1 0.2 1.0 0.172                         
pair_style    lj/cut/soft 1.0 1.0 1.5                                         
pair_coeff    2 2 0.5 1.0 0.172                         
dump            1 all cfg 100 dump.int_settings.in_*.cfg mass type xs ys zs fx fy fz
velocity        all create 0.0 29976 
fix             1 all nve/limit 1.5
fix             2 all langevin 0.0 0.0 1 29976
thermo_style    custom step temp press pe ke 
thermo          100
run             200 
unfix 1         
unfix 2         
undump 1        

pair_style    lj/cut/soft 1.0 1.0 1.5                                         
pair_coeff    1 2 0.2 1.0 0.181                         
pair_style    lj/cut/soft 1.0 1.0 1.5                                         
pair_coeff    1 1 0.2 1.0 0.181                         
pair_style    lj/cut/soft 1.0 1.0 1.5                                         
pair_coeff    2 2 0.5 1.0 0.181                         
dump            1 all cfg 100 dump.int_settings.in_*.cfg mass type xs ys zs fx fy fz
velocity        all create 0.0 29976 
fix             1 all nve/limit 1.5
fix             2 all langevin 0.0 0.0 1 29976
thermo_style    custom step temp press pe ke 
thermo          100
run             200 
unfix 1         
unfix 2         
undump 1        

pair_style    lj/cut/soft 1.0 1.0 1.5                                         
pair_coeff    1 2 0.2 1.0 0.19                         
pair_style    lj/cut/soft 1.0 1.0 1.5                                         
pair_coeff    1 1 0.2 1.0 0.19                         
pair_style    lj/cut/soft 1.0 1.0 1.5                                         
pair_coeff    2 2 0.5 1.0 0.19                         
dump            1 all cfg 100 dump.int_settings.in_*.cfg mass type xs ys zs fx fy fz
velocity        all create 0.0 29976 
fix             1 all nve/limit 1.5
fix             2 all langevin 0.0 0.0 1 29976
thermo_style    custom step temp press pe ke 
thermo          100
run             200 
unfix 1         
unfix 2         
undump 1        

pair_style    lj/cut/soft 1.0 1.0 1.5                                         
pair_coeff    1 2 0.2 1.0 0.199                         
pair_style    lj/cut/soft 1.0 1.0 1.5                                         
pair_coeff    1 1 0.2 1.0 0.199                         
pair_style    lj/cut/soft 1.0 1.0 1.5                                         
pair_coeff    2 2 0.5 1.0 0.199                         
dump            1 all cfg 100 dump.int_settings.in_*.cfg mass type xs ys zs fx fy fz
velocity        all create 0.0 29976 
fix             1 all nve/limit 1.5
fix             2 all langevin 0.0 0.0 1 29976
thermo_style    custom step temp press pe ke 
thermo          100
run             200 
unfix 1         
unfix 2         
undump 1        

pair_style    lj/cut/soft 1.0 1.0 1.5                                         
pair_coeff    1 2 0.2 1.0 0.208                         
pair_style    lj/cut/soft 1.0 1.0 1.5                                         
pair_coeff    1 1 0.2 1.0 0.208                         
pair_style    lj/cut/soft 1.0 1.0 1.5                                         
pair_coeff    2 2 0.5 1.0 0.208                         
dump            1 all cfg 100 dump.int_settings.in_*.cfg mass type xs ys zs fx fy fz
velocity        all create 0.0 29976 
fix             1 all nve/limit 1.5
fix             2 all langevin 0.0 0.0 1 29976
thermo_style    custom step temp press pe ke 
thermo          100
run             200 
unfix 1         
unfix 2         
undump 1        

pair_style    lj/cut/soft 1.0 1.0 1.5                                         
pair_coeff    1 2 0.2 1.0 0.217                         
pair_style    lj/cut/soft 1.0 1.0 1.5                                         
pair_coeff    1 1 0.2 1.0 0.217                         
pair_style    lj/cut/soft 1.0 1.0 1.5                                         
pair_coeff    2 2 0.5 1.0 0.217                         
dump            1 all cfg 100 dump.int_settings.in_*.cfg mass type xs ys zs fx fy fz
velocity        all create 0.0 29976 
fix             1 all nve/limit 1.5
fix             2 all langevin 0.0 0.0 1 29976
thermo_style    custom step temp press pe ke 
thermo          100
run             200 
unfix 1         
unfix 2         
undump 1        

pair_style    lj/cut/soft 1.0 1.0 1.5                                         
pair_coeff    1 2 0.2 1.0 0.226                         
pair_style    lj/cut/soft 1.0 1.0 1.5                                         
pair_coeff    1 1 0.2 1.0 0.226                         
pair_style    lj/cut/soft 1.0 1.0 1.5                                         
pair_coeff    2 2 0.5 1.0 0.226                         
dump            1 all cfg 100 dump.int_settings.in_*.cfg mass type xs ys zs fx fy fz
velocity        all create 0.0 29976 
fix             1 all nve/limit 1.5
fix             2 all langevin 0.0 0.0 1 29976
thermo_style    custom step temp press pe ke 
thermo          100
run             200 
unfix 1         
unfix 2         
undump 1        

pair_style    lj/cut/soft 1.0 1.0 1.5                                         
pair_coeff    1 2 0.2 1.0 0.235                         
pair_style    lj/cut/soft 1.0 1.0 1.5                                         
pair_coeff    1 1 0.2 1.0 0.235                         
pair_style    lj/cut/soft 1.0 1.0 1.5                                         
pair_coeff    2 2 0.5 1.0 0.235                         
dump            1 all cfg 100 dump.int_settings.in_*.cfg mass type xs ys zs fx fy fz
velocity        all create 0.0 29976 
fix             1 all nve/limit 1.5
fix             2 all langevin 0.0 0.0 1 29976
thermo_style    custom step temp press pe ke 
thermo          100
run             200 
unfix 1         
unfix 2         
undump 1        

pair_style    lj/cut/soft 1.0 1.0 1.5                                         
pair_coeff    1 2 0.2 1.0 0.244                         
pair_style    lj/cut/soft 1.0 1.0 1.5                                         
pair_coeff    1 1 0.2 1.0 0.244                         