#-----------------------------------------------------------------------------------
# NANOPOLY - POLYMER NANOCOMPOSITE SIMULATION FILE                                  
# Full project files can be found at: https://github.com/aravinthen/nanoPoly        
#-----------------------------------------------------------------------------------
# FILENAME: min_settings.in                                                        
# DATE: 2021-10-11                                                                     
# OVERVIEW:                                                                         
#    Number of polymer chains:       225                   
#    Number of bonded crosslinks:    0                
#    Number of unbonded crosslinks:  0                
#    Number of grafted chains:       0                  
#    Nanostructure:                  None               
#-----------------------------------------------------------------------------------
                                                                                      
variable structure index min_structure.in                                             
variable simulation index min_settings.in                                            
                                                                                      
# Initialization settings                                                             
units              lj                                                                 
boundary           p p p                                                              
atom_style         bond                                                       
log                log.${simulation}.txt                                            
                                                                                      
# read data from object into file                                                     
read_data          ${structure}                                                     

# define interactions                                                                 
neighbor      4.0 multi                                                           
neigh_modify  every 10 one 10000                                         
pair_style    lj/cut 1.5                                                         
pair_coeff    1 1 0.2 1.0                                  
pair_style    lj/cut 1.5                                                         
pair_coeff    1 2 0.2 1.0                                  
pair_style    lj/cut 1.5                                                         
pair_coeff    2 2 0.5 1.0                                  

bond_style    fene  
special_bonds fene  
bond_coeff    1 30 1.5 1.0 1.0 
compute         1 all stress/atom NULL 
min_style    cg                        
minimize     1e-05 1e-05 10000 100000    

#---------------------------------------------------------------------------------------------------
# EQUILIBRATION STAGE 1                                                                 
# Description: {description}
#---------------------------------------------------------------------------------------------------
dump            1 all cfg 100 dump.min_settings.in_*.cfg mass type xs ys zs fx fy fz c_1[1] c_1[2] c_1[3]
velocity        all create 1.0 52550 
fix             1 all nve/limit 1.5
fix             2 all langevin 1.0 1.0 10.0 52550
thermo_style    custom step temp press pe ke 
thermo          100
run             15000 
unfix 1         
unfix 2         
undump 1        
write_restart   restart.min_settings.in.polylattice1
