#-----------------------------------------------------------------------------------
# NANOPOLY - POLYMER NANOCOMPOSITE SIMULATION FILE                                  
# Full project files can be found at: https://github.com/aravinthen/nanoPoly        
#-----------------------------------------------------------------------------------
# FILENAME: test_settings.in                                                        
# DATE: 2021-10-18                                                                     
# OVERVIEW:                                                                         
#    Number of polymer chains:       5                   
#    Number of bonded crosslinks:    0                
#    Number of unbonded crosslinks:  0                
#    Number of grafted chains:       0                  
#    Nanostructure:                  None               
#-----------------------------------------------------------------------------------
                                                                                      
variable structure index test_structure2.in                                             
variable simulation index test_settings.in                                            
                                                                                      
# Initialization settings                                                             
units              lj                                                                 
boundary           p p p                                                              
atom_style         bond                                                       
log                log.${simulation}.txt                                            
                                                                                      
# read data from object into file                                                     
read_data          ${structure}                                                     

# define interactions                                                                 
neighbor      2.0 multi                                                           
neigh_modify  every 10 one 10000                                         
pair_style    lj/cut 1.5                                                         
pair_coeff    1 1 0.2 0.01                                  
pair_style    lj/cut 1.5                                                         
pair_coeff    1 2 0.2 0.1                                  
pair_style    lj/cut 1.5                                                         
pair_coeff    2 2 1.0 0.01                                  

bond_style    fene  
special_bonds fene  
bond_coeff    1 30 10.0 1.0 1.0 
compute         1 all stress/atom NULL 

#---------------------------------------------------------------------------------------------------------
# DEFORMATION STAGE                                                                                       
#---------------------------------------------------------------------------------------------------------
run             0            
dump            1 all cfg 100 dump.test_settings.in_*.cfg mass type xs ys zs fx fy fz c_1[1] c_1[2] c_1[3]
fix		3 all deform 1 x trate 0.02 y trate 0 z trate 0 units box remap x 
thermo_style    custom step temp lx ly lz pxx pyy pzz                   
thermo          100                         
run             100000                                
unfix 1                                                
unfix 2                                                
unfix 3                                                
undump 1        
