#-----------------------------------------------------------------------------------
# NANOPOLY - POLYMER NANOCOMPOSITE SIMULATION FILE                                  
# Full project files can be found at: https://github.com/aravinthen/nanoPoly        
#-----------------------------------------------------------------------------------
# FILENAME: test_lattice.in                                                        
# DATE: 2021-02-24                                                                     
# OVERVIEW:                                                                         
#    Number of polymer chains:     1                     
#    Number of crosslinks:         0           
#    Nanostructure:                None                 
#-----------------------------------------------------------------------------------
                                                                                      
variable structure index test_structure.in                                             
variable simulation index test_lattice.in                                            
                                                                                      
# Initialization settings                                                             
units              lj                                                                 
boundary           p p p                                                              
atom_style         bond                                                       
log                log.${simulation}.txt                                            
                                                                                      
# read data from object into file                                                     
read_data          ${structure} extra/special/per/atom 100 extra/bond/per/atom 100  

# define interactions                                                                 
neighbor      0.4 bin                                                                 
neigh_modify  every 10 one 10000                                                      
comm_modify   mode single cutoff 1.9 vel yes                                      
pair_style    lj/cut 3.0                                        
pair_coeff    * * 1.0 1.0            
bond_style    fene  
special_bonds fene  
bond_coeff    1 150.0 5.0 1.0 1.1 

#---------------------------------------------------------------------------------------------------
# EQUILIBRATION STAGE 1                                                                 
# Description: {description}
#---------------------------------------------------------------------------------------------------
compute         1 all stress/atom NULL 
dump            1 all cfg 100 dump.test_lattice.in_*.cfg mass type xs ys zs fx fy fz c_1[1] c_1[2] c_1[3] 

velocity        all create 5.0 1231 
fix             1 all nve/limit 1.0
fix             2 all langevin 5.0 30.0 10.0 35870
thermo_style    custom step temp press 
thermo          100
run             15000 
unfix 1         
unfix 2         
write_restart   restart.test_lattice.in.polylattice1

#---------------------------------------------------------------------------------------------------
# EQUILIBRATION STAGE 2                                                                 
# Description: {description}
#---------------------------------------------------------------------------------------------------
velocity        all create 30.0 1231 
fix             1 all nve/limit 1.0
fix             2 all langevin 30.0 30.0 10.0 35870
fix             3 all bond/create 1 4  1 1.1 1 prob 0.8 35870 iparam 2 4 jparam 3 1
fix             4 all bond/create 1 4  2 1.1 1 prob 0.8 35870 iparam 2 4 jparam 3 2
fix             5 all bond/create 1 4  3 1.1 1 prob 0.8 35870 iparam 2 4 jparam 3 3
thermo_style    custom step temp press 
thermo          100
run             5000 
unfix 1         
unfix 2         
unfix 3 
unfix 4 
unfix 5 
write_restart   restart.test_lattice.in.polylattice2
