#-----------------------------------------------------------------------------------
# NANOPOLY - POLYMER NANOCOMPOSITE SIMULATION FILE                                  
# Full project files can be found at: https://github.com/aravinthen/nanoPoly        
#-----------------------------------------------------------------------------------
# FILENAME: test_settings.in                                                        
# DATE: 2021-06-10                                                                     
# OVERVIEW:                                                                         
#    Number of polymer chains:       50                   
#    Number of bonded crosslinks:    0                
#    Number of unbonded crosslinks:  0                
#    Number of grafted chains:       0                  
#    Nanostructure:                  None               
#-----------------------------------------------------------------------------------
                                                                                      
variable structure index test_structure.in                                             
variable simulation index test_settings.in                                            
                                                                                      
# Initialization settings                                                             
units              lj                                                                 
boundary           p p p                                                              
atom_style         bond                                                       
log                log.${simulation}.txt                                            
                                                                                      
# read data from object into file                                                     
read_data          ${structure}                                                     

# define interactions                                                                 
neighbor      1.0 multi                                                               
neigh_modify  every 10 one 1000                                         
pair_style    lj/cut 1.5                                                         
pair_coeff    1 1 1.0 1.0                                  
pair_style    lj/cut 1.5                                                         
pair_coeff    1 2 0.2 0.3                                  
pair_style    lj/cut 1.5                                                         
pair_coeff    2 2 0.5 0.5                                  

bond_style    fene  
special_bonds fene  
bond_coeff    1 30 1.5 1.0 1.0 
compute         1 all stress/atom NULL 

#---------------------------------------------------------------------------------------------------
# EQUILIBRATION STAGE 1                                                                 
# Description: {description}
#---------------------------------------------------------------------------------------------------
dump            1 all cfg 100 dump.test_settings.in_*.cfg mass type xs ys zs fx fy fz c_1[1] c_1[2] c_1[3]
velocity        all create 1.0 1231 
fix             1 all nve/limit 1.5
fix             2 all langevin 1.0 1.0 10.0 45724
thermo_style    custom step temp press 
thermo          100
run             5000 
unfix 1         
unfix 2         
undump 1        
write_restart   restart.test_settings.in.polylattice1

#---------------------------------------------------------------------------------------------------------
# DEFORMATION STAGE                                                                                       
#---------------------------------------------------------------------------------------------------------
run             0            
dump            1 all cfg 100 dump.test_settings.in_*.cfg mass type xs ys zs fx fy fz c_1[1] c_1[2] c_1[3]
velocity        all create 0.5 1231 
fix             1 all langevin 0.5 0.5 0.1 72119 
fix             2 all nve/limit 1.5
fix		3 all deform 1 x trate -0.02 y trate -0.02 z trate -0.02 units box remap x 
variable        var_step equal "step"              
variable        var_temp equal "temp"              
variable        var_lx equal "lx"              
variable        var_ly equal "ly"              
variable        var_lz equal "lz"              
variable        var_pxx equal "pxx"              
variable        var_pyy equal "pyy"              
variable        var_pzz equal "pzz"              
fix             datafile all print 100 "${var_step}	${var_temp}	${var_lx}	${var_ly}	${var_lz}	${var_pxx}	${var_pyy}	${var_pzz}" file test_settings.in.deform.data title "step	temp	lx	ly	lz	pxx	pyy	pzz" screen no 
thermo_style    custom step temp lx ly lz pxx pyy pzz                   
thermo          100                         
run             50000                                
unfix 1                                                
unfix 2                                                
unfix 3                                                
undump 1        
unfix datafile 
