#-----------------------------------------------------------------------------------
# NANOPOLY - POLYMER NANOCOMPOSITE SIMULATION FILE                                  
# Full project files can be found at: https://github.com/aravinthen/nanoPoly        
#-----------------------------------------------------------------------------------
# FILENAME: int_settings.in                                                        
# DATE: 2021-09-10                                                                     
# OVERVIEW:                                                                         
#    Number of polymer chains:       1                   
#    Number of bonded crosslinks:    0                
#    Number of unbonded crosslinks:  0                
#    Number of grafted chains:       0                  
#    Nanostructure:                  None               
#-----------------------------------------------------------------------------------
                                                                                      
variable structure index int_structure.in                                             
variable simulation index int_settings.in                                            
                                                                                      
# Initialization settings                                                             
units              lj                                                                 
boundary           p p p                                                              
atom_style         bond                                                       
log                log.${simulation}.txt                                            
                                                                                      
# read data from object into file                                                     
read_data          ${structure}                                                     

# define interactions                                                                 
neighbor      4.0 multi                                                           
neigh_modify  every 10 one 10000                                         
pair_style    lj/cut 1.5                                                         
pair_coeff    1 1 0.2 0.01                                  
pair_style    lj/cut 1.5                                                         
pair_coeff    1 2 0.2 0.01                                  
pair_style    lj/cut 1.5                                                         
pair_coeff    2 2 0.5 0.01                                  

bond_style    fene  
special_bonds fene  
bond_coeff    1 30 1.5 1.0 1.0 
compute         1 all stress/atom NULL 

#---------------------------------------------------------------------------------------------------
# POTENTIAL MODIFICATION STAGE                                                                 
#---------------------------------------------------------------------------------------------------
pair_style    lj/cut/soft 1.0 1.0 1.5                                         
pair_coeff    1 2 0.2 0.059500000000000004 0.1                         
pair_style    lj/cut/soft 1.0 1.0 1.5                                         
pair_coeff    1 1 0.2 0.059500000000000004 0.1                         
pair_style    lj/cut/soft 1.0 1.0 1.5                                         
pair_coeff    2 2 0.5 0.059500000000000004 0.1                         
velocity        all create 1.0 52690 
fix             1 all nve/limit 1.5
fix             2 all langevin 1.0 1.0 10 52690
thermo_style    custom step temp press pe ke 
thermo          100
run             100 
unfix 1         
unfix 2         

pair_style    lj/cut/soft 1.0 1.0 1.5                                         
pair_coeff    1 2 0.2 0.10900000000000001 0.1                         
pair_style    lj/cut/soft 1.0 1.0 1.5                                         
pair_coeff    1 1 0.2 0.10900000000000001 0.1                         
pair_style    lj/cut/soft 1.0 1.0 1.5                                         
pair_coeff    2 2 0.5 0.10900000000000001 0.1                         
velocity        all create 1.0 52690 
fix             1 all nve/limit 1.5
fix             2 all langevin 1.0 1.0 10 52690
thermo_style    custom step temp press pe ke 
thermo          100
run             100 
unfix 1         
unfix 2         

pair_style    lj/cut/soft 1.0 1.0 1.5                                         
pair_coeff    1 2 0.2 0.15850000000000003 0.1                         
pair_style    lj/cut/soft 1.0 1.0 1.5                                         
pair_coeff    1 1 0.2 0.15850000000000003 0.1                         
pair_style    lj/cut/soft 1.0 1.0 1.5                                         
pair_coeff    2 2 0.5 0.15850000000000003 0.1                         
velocity        all create 1.0 52690 
fix             1 all nve/limit 1.5
fix             2 all langevin 1.0 1.0 10 52690
thermo_style    custom step temp press pe ke 
thermo          100
run             100 
unfix 1         
unfix 2         

pair_style    lj/cut/soft 1.0 1.0 1.5                                         
pair_coeff    1 2 0.2 0.20800000000000002 0.1                         
pair_style    lj/cut/soft 1.0 1.0 1.5                                         
pair_coeff    1 1 0.2 0.20800000000000002 0.1                         
pair_style    lj/cut/soft 1.0 1.0 1.5                                         
pair_coeff    2 2 0.5 0.20800000000000002 0.1                         
velocity        all create 1.0 52690 
fix             1 all nve/limit 1.5
fix             2 all langevin 1.0 1.0 10 52690
thermo_style    custom step temp press pe ke 
thermo          100
run             100 
unfix 1         
unfix 2         

pair_style    lj/cut/soft 1.0 1.0 1.5                                         
pair_coeff    1 2 0.2 0.2575 0.1                         
pair_style    lj/cut/soft 1.0 1.0 1.5                                         
pair_coeff    1 1 0.2 0.2575 0.1                         
pair_style    lj/cut/soft 1.0 1.0 1.5                                         
pair_coeff    2 2 0.5 0.2575 0.1                         
velocity        all create 1.0 52690 
fix             1 all nve/limit 1.5
fix             2 all langevin 1.0 1.0 10 52690
thermo_style    custom step temp press pe ke 
thermo          100
run             100 
unfix 1         
unfix 2         

pair_style    lj/cut/soft 1.0 1.0 1.5                                         
pair_coeff    1 2 0.2 0.307 0.1                         
pair_style    lj/cut/soft 1.0 1.0 1.5                                         
pair_coeff    1 1 0.2 0.307 0.1                         
pair_style    lj/cut/soft 1.0 1.0 1.5                                         
pair_coeff    2 2 0.5 0.307 0.1                         
velocity        all create 1.0 52690 
fix             1 all nve/limit 1.5
fix             2 all langevin 1.0 1.0 10 52690
thermo_style    custom step temp press pe ke 
thermo          100
run             100 
unfix 1         
unfix 2         

pair_style    lj/cut/soft 1.0 1.0 1.5                                         
pair_coeff    1 2 0.2 0.3565 0.1                         
pair_style    lj/cut/soft 1.0 1.0 1.5                                         
pair_coeff    1 1 0.2 0.3565 0.1                         
pair_style    lj/cut/soft 1.0 1.0 1.5                                         
pair_coeff    2 2 0.5 0.3565 0.1                         
velocity        all create 1.0 52690 
fix             1 all nve/limit 1.5
fix             2 all langevin 1.0 1.0 10 52690
thermo_style    custom step temp press pe ke 
thermo          100
run             100 
unfix 1         
unfix 2         

pair_style    lj/cut/soft 1.0 1.0 1.5                                         
pair_coeff    1 2 0.2 0.40599999999999997 0.1                         
pair_style    lj/cut/soft 1.0 1.0 1.5                                         
pair_coeff    1 1 0.2 0.40599999999999997 0.1                         
pair_style    lj/cut/soft 1.0 1.0 1.5                                         
pair_coeff    2 2 0.5 0.40599999999999997 0.1                         
velocity        all create 1.0 52690 
fix             1 all nve/limit 1.5
fix             2 all langevin 1.0 1.0 10 52690
thermo_style    custom step temp press pe ke 
thermo          100
run             100 
unfix 1         
unfix 2         

pair_style    lj/cut/soft 1.0 1.0 1.5                                         
pair_coeff    1 2 0.2 0.45549999999999996 0.1                         
pair_style    lj/cut/soft 1.0 1.0 1.5                                         
pair_coeff    1 1 0.2 0.45549999999999996 0.1                         
pair_style    lj/cut/soft 1.0 1.0 1.5                                         
pair_coeff    2 2 0.5 0.45549999999999996 0.1                         
velocity        all create 1.0 52690 
fix             1 all nve/limit 1.5
fix             2 all langevin 1.0 1.0 10 52690
thermo_style    custom step temp press pe ke 
thermo          100
run             100 
unfix 1         
unfix 2         

pair_style    lj/cut/soft 1.0 1.0 1.5                                         
pair_coeff    1 2 0.2 0.505 0.1                         
pair_style    lj/cut/soft 1.0 1.0 1.5                                         
pair_coeff    1 1 0.2 0.505 0.1                         
pair_style    lj/cut/soft 1.0 1.0 1.5                                         
pair_coeff    2 2 0.5 0.505 0.1                         
velocity        all create 1.0 52690 
fix             1 all nve/limit 1.5
fix             2 all langevin 1.0 1.0 10 52690
thermo_style    custom step temp press pe ke 
thermo          100
run             100 
unfix 1         
unfix 2         

pair_style    lj/cut/soft 1.0 1.0 1.5                                         
pair_coeff    1 2 0.2 0.5545 0.1                         
pair_style    lj/cut/soft 1.0 1.0 1.5                                         
pair_coeff    1 1 0.2 0.5545 0.1                         
pair_style    lj/cut/soft 1.0 1.0 1.5                                         
pair_coeff    2 2 0.5 0.5545 0.1                         
velocity        all create 1.0 52690 
fix             1 all nve/limit 1.5
fix             2 all langevin 1.0 1.0 10 52690
thermo_style    custom step temp press pe ke 
thermo          100
run             100 
unfix 1         
unfix 2         

pair_style    lj/cut/soft 1.0 1.0 1.5                                         
pair_coeff    1 2 0.2 0.604 0.1                         
pair_style    lj/cut/soft 1.0 1.0 1.5                                         
pair_coeff    1 1 0.2 0.604 0.1                         
pair_style    lj/cut/soft 1.0 1.0 1.5                                         
pair_coeff    2 2 0.5 0.604 0.1                         
velocity        all create 1.0 52690 
fix             1 all nve/limit 1.5
fix             2 all langevin 1.0 1.0 10 52690
thermo_style    custom step temp press pe ke 
thermo          100
run             100 
unfix 1         
unfix 2         

pair_style    lj/cut/soft 1.0 1.0 1.5                                         
pair_coeff    1 2 0.2 0.6535 0.1                         
pair_style    lj/cut/soft 1.0 1.0 1.5                                         
pair_coeff    1 1 0.2 0.6535 0.1                         
pair_style    lj/cut/soft 1.0 1.0 1.5                                         
pair_coeff    2 2 0.5 0.6535 0.1                         
velocity        all create 1.0 52690 
fix             1 all nve/limit 1.5
fix             2 all langevin 1.0 1.0 10 52690
thermo_style    custom step temp press pe ke 
thermo          100
run             100 
unfix 1         
unfix 2         

pair_style    lj/cut/soft 1.0 1.0 1.5                                         
pair_coeff    1 2 0.2 0.703 0.1                         
pair_style    lj/cut/soft 1.0 1.0 1.5                                         
pair_coeff    1 1 0.2 0.703 0.1                         
pair_style    lj/cut/soft 1.0 1.0 1.5                                         
pair_coeff    2 2 0.5 0.703 0.1                         
velocity        all create 1.0 52690 
fix             1 all nve/limit 1.5
fix             2 all langevin 1.0 1.0 10 52690
thermo_style    custom step temp press pe ke 
thermo          100
run             100 
unfix 1         
unfix 2         

pair_style    lj/cut/soft 1.0 1.0 1.5                                         
pair_coeff    1 2 0.2 0.7525 0.1                         
pair_style    lj/cut/soft 1.0 1.0 1.5                                         
pair_coeff    1 1 0.2 0.7525 0.1                         
pair_style    lj/cut/soft 1.0 1.0 1.5                                         
pair_coeff    2 2 0.5 0.7525 0.1                         
velocity        all create 1.0 52690 
fix             1 all nve/limit 1.5
fix             2 all langevin 1.0 1.0 10 52690
thermo_style    custom step temp press pe ke 
thermo          100
run             100 
unfix 1         
unfix 2         

pair_style    lj/cut/soft 1.0 1.0 1.5                                         
pair_coeff    1 2 0.2 0.8019999999999999 0.1                         
pair_style    lj/cut/soft 1.0 1.0 1.5                                         
pair_coeff    1 1 0.2 0.8019999999999999 0.1                         
pair_style    lj/cut/soft 1.0 1.0 1.5                                         
pair_coeff    2 2 0.5 0.8019999999999999 0.1                         
velocity        all create 1.0 52690 
fix             1 all nve/limit 1.5
fix             2 all langevin 1.0 1.0 10 52690
thermo_style    custom step temp press pe ke 
thermo          100
run             100 
unfix 1         
unfix 2         

pair_style    lj/cut/soft 1.0 1.0 1.5                                         
pair_coeff    1 2 0.2 0.8514999999999999 0.1                         
pair_style    lj/cut/soft 1.0 1.0 1.5                                         
pair_coeff    1 1 0.2 0.8514999999999999 0.1                         
pair_style    lj/cut/soft 1.0 1.0 1.5                                         
pair_coeff    2 2 0.5 0.8514999999999999 0.1                         
velocity        all create 1.0 52690 
fix             1 all nve/limit 1.5
fix             2 all langevin 1.0 1.0 10 52690
thermo_style    custom step temp press pe ke 
thermo          100
run             100 
unfix 1         
unfix 2         

pair_style    lj/cut/soft 1.0 1.0 1.5                                         
pair_coeff    1 2 0.2 0.9009999999999999 0.1                         
pair_style    lj/cut/soft 1.0 1.0 1.5                                         
pair_coeff    1 1 0.2 0.9009999999999999 0.1                         
pair_style    lj/cut/soft 1.0 1.0 1.5                                         
pair_coeff    2 2 0.5 0.9009999999999999 0.1                         
velocity        all create 1.0 52690 
fix             1 all nve/limit 1.5
fix             2 all langevin 1.0 1.0 10 52690
thermo_style    custom step temp press pe ke 
thermo          100
run             100 
unfix 1         
unfix 2         

pair_style    lj/cut/soft 1.0 1.0 1.5                                         
pair_coeff    1 2 0.2 0.9504999999999999 0.1                         
pair_style    lj/cut/soft 1.0 1.0 1.5                                         
pair_coeff    1 1 0.2 0.9504999999999999 0.1                         
pair_style    lj/cut/soft 1.0 1.0 1.5                                         
pair_coeff    2 2 0.5 0.9504999999999999 0.1                         
velocity        all create 1.0 52690 
fix             1 all nve/limit 1.5
fix             2 all langevin 1.0 1.0 10 52690
thermo_style    custom step temp press pe ke 
thermo          100
run             100 
unfix 1         
unfix 2         

pair_style    lj/cut/soft 1.0 1.0 1.5                                         
pair_coeff    1 2 0.2 0.9999999999999999 0.1                         
pair_style    lj/cut/soft 1.0 1.0 1.5                                         
pair_coeff    1 1 0.2 0.9999999999999999 0.1                         
pair_style    lj/cut/soft 1.0 1.0 1.5                                         
pair_coeff    2 2 0.5 0.9999999999999999 0.1                         
velocity        all create 1.0 52690 
fix             1 all nve/limit 1.5
fix             2 all langevin 1.0 1.0 10 52690
thermo_style    custom step temp press pe ke 
thermo          100
run             100 
unfix 1         
unfix 2         



#---------------------------------------------------------------------------------------------------
# EQUILIBRATION STAGE 1                                                                 
#---------------------------------------------------------------------------------------------------
velocity        all create 1.0 58841 
fix             1 all nve/limit 1.5
fix             2 all langevin 1.0 1.0 10.0 58841
thermo_style    custom step temp press pe ke 
thermo          100
run             100000 
unfix 1         
unfix 2         
write_restart   restart.int_settings.in.polylattice1

#---------------------------------------------------------------------------------------------------
# POTENTIAL MODIFICATION STAGE                                                                 
#---------------------------------------------------------------------------------------------------
pair_style    lj/cut/soft 1.0 1.0 1.5                                         
pair_coeff    1 2 0.2 1.0 0.109                         
pair_style    lj/cut/soft 1.0 1.0 1.5                                         
pair_coeff    1 1 0.2 1.0 0.109                         
pair_style    lj/cut/soft 1.0 1.0 1.5                                         
pair_coeff    2 2 0.5 1.0 0.109                         
velocity        all scale 1.0 
fix             1 all nve/limit 1.5
fix             2 all langevin 1.0 1.0 1 52690
thermo_style    custom step temp press pe ke 
thermo          100
run             100 
unfix 1         
unfix 2         

pair_style    lj/cut/soft 1.0 1.0 1.5                                         
pair_coeff    1 2 0.2 1.0 0.118                         
pair_style    lj/cut/soft 1.0 1.0 1.5                                         
pair_coeff    1 1 0.2 1.0 0.118                         
pair_style    lj/cut/soft 1.0 1.0 1.5                                         
pair_coeff    2 2 0.5 1.0 0.118                         
velocity        all scale 1.0 
fix             1 all nve/limit 1.5
fix             2 all langevin 1.0 1.0 1 52690
thermo_style    custom step temp press pe ke 
thermo          100
run             100 
unfix 1         
unfix 2         

pair_style    lj/cut/soft 1.0 1.0 1.5                                         
pair_coeff    1 2 0.2 1.0 0.127                         
pair_style    lj/cut/soft 1.0 1.0 1.5                                         
pair_coeff    1 1 0.2 1.0 0.127                         
pair_style    lj/cut/soft 1.0 1.0 1.5                                         
pair_coeff    2 2 0.5 1.0 0.127                         
velocity        all scale 1.0 
fix             1 all nve/limit 1.5
fix             2 all langevin 1.0 1.0 1 52690
thermo_style    custom step temp press pe ke 
thermo          100
run             100 
unfix 1         
unfix 2         

pair_style    lj/cut/soft 1.0 1.0 1.5                                         
pair_coeff    1 2 0.2 1.0 0.136                         
pair_style    lj/cut/soft 1.0 1.0 1.5                                         
pair_coeff    1 1 0.2 1.0 0.136                         
pair_style    lj/cut/soft 1.0 1.0 1.5                                         
pair_coeff    2 2 0.5 1.0 0.136                         
velocity        all scale 1.0 
fix             1 all nve/limit 1.5
fix             2 all langevin 1.0 1.0 1 52690
thermo_style    custom step temp press pe ke 
thermo          100
run             100 
unfix 1         
unfix 2         

pair_style    lj/cut/soft 1.0 1.0 1.5                                         
pair_coeff    1 2 0.2 1.0 0.14500000000000002                         
pair_style    lj/cut/soft 1.0 1.0 1.5                                         
pair_coeff    1 1 0.2 1.0 0.14500000000000002                         
pair_style    lj/cut/soft 1.0 1.0 1.5                                         
pair_coeff    2 2 0.5 1.0 0.14500000000000002                         
velocity        all scale 1.0 
fix             1 all nve/limit 1.5
fix             2 all langevin 1.0 1.0 1 52690
thermo_style    custom step temp press pe ke 
thermo          100
run             100 
unfix 1         
unfix 2         

pair_style    lj/cut/soft 1.0 1.0 1.5                                         
pair_coeff    1 2 0.2 1.0 0.15400000000000003                         
pair_style    lj/cut/soft 1.0 1.0 1.5                                         
pair_coeff    1 1 0.2 1.0 0.15400000000000003                         
pair_style    lj/cut/soft 1.0 1.0 1.5                                         
pair_coeff    2 2 0.5 1.0 0.15400000000000003                         
velocity        all scale 1.0 
fix             1 all nve/limit 1.5
fix             2 all langevin 1.0 1.0 1 52690
thermo_style    custom step temp press pe ke 
thermo          100
run             100 
unfix 1         
unfix 2         

pair_style    lj/cut/soft 1.0 1.0 1.5                                         
pair_coeff    1 2 0.2 1.0 0.16300000000000003                         
pair_style    lj/cut/soft 1.0 1.0 1.5                                         
pair_coeff    1 1 0.2 1.0 0.16300000000000003                         
pair_style    lj/cut/soft 1.0 1.0 1.5                                         
pair_coeff    2 2 0.5 1.0 0.16300000000000003                         
velocity        all scale 1.0 
fix             1 all nve/limit 1.5
fix             2 all langevin 1.0 1.0 1 52690
thermo_style    custom step temp press pe ke 
thermo          100
run             100 
unfix 1         
unfix 2         

pair_style    lj/cut/soft 1.0 1.0 1.5                                         
pair_coeff    1 2 0.2 1.0 0.17200000000000004                         
pair_style    lj/cut/soft 1.0 1.0 1.5                                         
pair_coeff    1 1 0.2 1.0 0.17200000000000004                         
pair_style    lj/cut/soft 1.0 1.0 1.5                                         
pair_coeff    2 2 0.5 1.0 0.17200000000000004                         
velocity        all scale 1.0 
fix             1 all nve/limit 1.5
fix             2 all langevin 1.0 1.0 1 52690
thermo_style    custom step temp press pe ke 
thermo          100
run             100 
unfix 1         
unfix 2         

pair_style    lj/cut/soft 1.0 1.0 1.5                                         
pair_coeff    1 2 0.2 1.0 0.18100000000000005                         
pair_style    lj/cut/soft 1.0 1.0 1.5                                         
pair_coeff    1 1 0.2 1.0 0.18100000000000005                         
pair_style    lj/cut/soft 1.0 1.0 1.5                                         
pair_coeff    2 2 0.5 1.0 0.18100000000000005                         
velocity        all scale 1.0 
fix             1 all nve/limit 1.5
fix             2 all langevin 1.0 1.0 1 52690
thermo_style    custom step temp press pe ke 
thermo          100
run             100 
unfix 1         
unfix 2         

pair_style    lj/cut/soft 1.0 1.0 1.5                                         
pair_coeff    1 2 0.2 1.0 0.19000000000000006                         
pair_style    lj/cut/soft 1.0 1.0 1.5                                         
pair_coeff    1 1 0.2 1.0 0.19000000000000006                         
pair_style    lj/cut/soft 1.0 1.0 1.5                                         
pair_coeff    2 2 0.5 1.0 0.19000000000000006                         
velocity        all scale 1.0 
fix             1 all nve/limit 1.5
fix             2 all langevin 1.0 1.0 1 52690
thermo_style    custom step temp press pe ke 
thermo          100
run             100 
unfix 1         
unfix 2         

pair_style    lj/cut/soft 1.0 1.0 1.5                                         
pair_coeff    1 2 0.2 1.0 0.19900000000000007                         
pair_style    lj/cut/soft 1.0 1.0 1.5                                         
pair_coeff    1 1 0.2 1.0 0.19900000000000007                         
pair_style    lj/cut/soft 1.0 1.0 1.5                                         
pair_coeff    2 2 0.5 1.0 0.19900000000000007                         
velocity        all scale 1.0 
fix             1 all nve/limit 1.5
fix             2 all langevin 1.0 1.0 1 52690
thermo_style    custom step temp press pe ke 
thermo          100
run             100 
unfix 1         
unfix 2         

pair_style    lj/cut/soft 1.0 1.0 1.5                                         
pair_coeff    1 2 0.2 1.0 0.20800000000000007                         
pair_style    lj/cut/soft 1.0 1.0 1.5                                         
pair_coeff    1 1 0.2 1.0 0.20800000000000007                         
pair_style    lj/cut/soft 1.0 1.0 1.5                                         
pair_coeff    2 2 0.5 1.0 0.20800000000000007                         
velocity        all scale 1.0 
fix             1 all nve/limit 1.5
fix             2 all langevin 1.0 1.0 1 52690
thermo_style    custom step temp press pe ke 
thermo          100
run             100 
unfix 1         
unfix 2         

pair_style    lj/cut/soft 1.0 1.0 1.5                                         
pair_coeff    1 2 0.2 1.0 0.21700000000000008                         
pair_style    lj/cut/soft 1.0 1.0 1.5                                         
pair_coeff    1 1 0.2 1.0 0.21700000000000008                         
pair_style    lj/cut/soft 1.0 1.0 1.5                                         
pair_coeff    2 2 0.5 1.0 0.21700000000000008                         
velocity        all scale 1.0 
fix             1 all nve/limit 1.5
fix             2 all langevin 1.0 1.0 1 52690
thermo_style    custom step temp press pe ke 
thermo          100
run             100 
unfix 1         
unfix 2         

pair_style    lj/cut/soft 1.0 1.0 1.5                                         
pair_coeff    1 2 0.2 1.0 0.2260000000000001                         
pair_style    lj/cut/soft 1.0 1.0 1.5                                         
pair_coeff    1 1 0.2 1.0 0.2260000000000001                         
pair_style    lj/cut/soft 1.0 1.0 1.5                                         
pair_coeff    2 2 0.5 1.0 0.2260000000000001                         
velocity        all scale 1.0 
fix             1 all nve/limit 1.5
fix             2 all langevin 1.0 1.0 1 52690
thermo_style    custom step temp press pe ke 
thermo          100
run             100 
unfix 1         
unfix 2         

pair_style    lj/cut/soft 1.0 1.0 1.5                                         
pair_coeff    1 2 0.2 1.0 0.2350000000000001                         
pair_style    lj/cut/soft 1.0 1.0 1.5                                         
pair_coeff    1 1 0.2 1.0 0.2350000000000001                         
pair_style    lj/cut/soft 1.0 1.0 1.5                                         
pair_coeff    2 2 0.5 1.0 0.2350000000000001                         
velocity        all scale 1.0 
fix             1 all nve/limit 1.5
fix             2 all langevin 1.0 1.0 1 52690
thermo_style    custom step temp press pe ke 
thermo          100
run             100 
unfix 1         
unfix 2         

pair_style    lj/cut/soft 1.0 1.0 1.5                                         
pair_coeff    1 2 0.2 1.0 0.2440000000000001                         
pair_style    lj/cut/soft 1.0 1.0 1.5                                         
pair_coeff    1 1 0.2 1.0 0.2440000000000001                         
pair_style    lj/cut/soft 1.0 1.0 1.5                                         
pair_coeff    2 2 0.5 1.0 0.2440000000000001                         
velocity        all scale 1.0 
fix             1 all nve/limit 1.5
fix             2 all langevin 1.0 1.0 1 52690
thermo_style    custom step temp press pe ke 
thermo          100
run             100 
unfix 1         
unfix 2         

pair_style    lj/cut/soft 1.0 1.0 1.5                                         
pair_coeff    1 2 0.2 1.0 0.2530000000000001                         
pair_style    lj/cut/soft 1.0 1.0 1.5                                         
pair_coeff    1 1 0.2 1.0 0.2530000000000001                         
pair_style    lj/cut/soft 1.0 1.0 1.5                                         
pair_coeff    2 2 0.5 1.0 0.2530000000000001                         
velocity        all scale 1.0 
fix             1 all nve/limit 1.5
fix             2 all langevin 1.0 1.0 1 52690
thermo_style    custom step temp press pe ke 
thermo          100
run             100 
unfix 1         
unfix 2         

pair_style    lj/cut/soft 1.0 1.0 1.5                                         
pair_coeff    1 2 0.2 1.0 0.2620000000000001                         
pair_style    lj/cut/soft 1.0 1.0 1.5                                         
pair_coeff    1 1 0.2 1.0 0.2620000000000001                         
pair_style    lj/cut/soft 1.0 1.0 1.5                                         
pair_coeff    2 2 0.5 1.0 0.2620000000000001                         
velocity        all scale 1.0 
fix             1 all nve/limit 1.5
fix             2 all langevin 1.0 1.0 1 52690
thermo_style    custom step temp press pe ke 
thermo          100
run             100 
unfix 1         
unfix 2         

pair_style    lj/cut/soft 1.0 1.0 1.5                                         
pair_coeff    1 2 0.2 1.0 0.27100000000000013                         
pair_style    lj/cut/soft 1.0 1.0 1.5                                         
pair_coeff    1 1 0.2 1.0 0.27100000000000013                         